Route #1: 49 73 36 42 13 51 77 3
Route #2: 40 21 1 7 10 71 14
Route #3: 78 68 16 43 61 57 75 20 30 24
Route #4: 38 58 50 76 72 64 46 25 41 15
Route #5: 33 54 9 55 56 69 65 35 26 19 47 27 31 60
Route #6: 22 45 32 4 70 66 67 53
Route #7: 62 23 12 44 5 29 74
Route #8: 63 11 28 52 79 48 34
Route #9: 18 2 37 8 6
Route #10: 17 39 59
cost: 2025.5652151787046
